(set-info :smt-lib-version 2.6)
(set-logic UFNIA)
(set-info :source |
Generated by: Geoff Sutcliffe
Generated on: 2026-03-11
Generator: TPTPWorld
Application: Benchmarking automated theorem provers
Time limit: 120.0

These benchmarks are translations from the TPTP Library (Thousands of
Problems for Theorem Provers), see http://www.cs.miami.edu/~tptp/

The TPTP is maintained by Geoff Sutcliffe, and he contributed this
selection of benchmarks to SMT-LIB.  They were exported from the
v9.2.1 realease of TPTP.
|)
(set-info :category "industrial")
(set-info :status unknown)
; SZS status Success
(declare-sort $$unsorted 0)
(declare-sort tptp.uni 0)
(declare-sort tptp.ty 0)
(declare-fun tptp.sort1 (tptp.ty tptp.uni) Bool)
(declare-fun tptp.witness1 (tptp.ty) tptp.uni)
(assert (forall ((A tptp.ty)) (tptp.sort1 A (tptp.witness1 A))))
(declare-fun tptp.int () tptp.ty)
(declare-fun tptp.real () tptp.ty)
(declare-sort tptp.bool1 0)
(declare-fun tptp.bool () tptp.ty)
(declare-fun tptp.true1 () tptp.bool1)
(declare-fun tptp.false1 () tptp.bool1)
(declare-fun tptp.match_bool1 (tptp.ty tptp.bool1 tptp.uni tptp.uni) tptp.uni)
(assert (forall ((A tptp.ty) (X tptp.bool1) (X1 tptp.uni) (X2 tptp.uni)) (tptp.sort1 A (tptp.match_bool1 A X X1 X2))))
(assert (forall ((A tptp.ty) (Z tptp.uni) (Z1 tptp.uni)) (=> (tptp.sort1 A Z) (= (tptp.match_bool1 A tptp.true1 Z Z1) Z))))
(assert (forall ((A tptp.ty) (Z tptp.uni) (Z1 tptp.uni)) (=> (tptp.sort1 A Z1) (= (tptp.match_bool1 A tptp.false1 Z Z1) Z1))))
(assert (not (= tptp.true1 tptp.false1)))
(assert (forall ((U tptp.bool1)) (or (= U tptp.true1) (= U tptp.false1))))
(declare-sort tptp.tuple02 0)
(declare-fun tptp.tuple0 () tptp.ty)
(declare-fun tptp.tuple03 () tptp.tuple02)
(assert (forall ((U tptp.tuple02)) (= U tptp.tuple03)))
(declare-fun tptp.qtmark () tptp.ty)
(declare-sort tptp.color1 0)
(declare-fun tptp.color () tptp.ty)
(declare-fun tptp.red1 () tptp.color1)
(declare-fun tptp.black1 () tptp.color1)
(declare-fun tptp.match_color1 (tptp.ty tptp.color1 tptp.uni tptp.uni) tptp.uni)
(assert (forall ((A tptp.ty) (X tptp.color1) (X1 tptp.uni) (X2 tptp.uni)) (tptp.sort1 A (tptp.match_color1 A X X1 X2))))
(assert (forall ((A tptp.ty) (Z tptp.uni) (Z1 tptp.uni)) (=> (tptp.sort1 A Z) (= (tptp.match_color1 A tptp.red1 Z Z1) Z))))
(assert (forall ((A tptp.ty) (Z tptp.uni) (Z1 tptp.uni)) (=> (tptp.sort1 A Z1) (= (tptp.match_color1 A tptp.black1 Z Z1) Z1))))
(assert (not (= tptp.red1 tptp.black1)))
(assert (forall ((U tptp.color1)) (or (= U tptp.red1) (= U tptp.black1))))
(declare-sort tptp.tree1 0)
(declare-fun tptp.tree () tptp.ty)
(declare-fun tptp.leaf1 () tptp.tree1)
(declare-fun tptp.node1 (tptp.color1 tptp.tree1 Int Int tptp.tree1) tptp.tree1)
(declare-fun tptp.match_tree1 (tptp.ty tptp.tree1 tptp.uni tptp.uni) tptp.uni)
(assert (forall ((A tptp.ty) (X tptp.tree1) (X1 tptp.uni) (X2 tptp.uni)) (tptp.sort1 A (tptp.match_tree1 A X X1 X2))))
(assert (forall ((A tptp.ty) (Z tptp.uni) (Z1 tptp.uni)) (=> (tptp.sort1 A Z) (= (tptp.match_tree1 A tptp.leaf1 Z Z1) Z))))
(assert (forall ((A tptp.ty) (Z tptp.uni) (Z1 tptp.uni) (U tptp.color1) (U1 tptp.tree1) (U2 Int) (U3 Int) (U4 tptp.tree1)) (=> (tptp.sort1 A Z1) (= (tptp.match_tree1 A (tptp.node1 U U1 U2 U3 U4) Z Z1) Z1))))
(assert (forall ((V tptp.color1) (V1 tptp.tree1) (V2 Int) (V3 Int) (V4 tptp.tree1)) (not (= tptp.leaf1 (tptp.node1 V V1 V2 V3 V4)))))
(declare-fun tptp.node_proj_11 (tptp.tree1) tptp.color1)
(assert (forall ((U tptp.color1) (U1 tptp.tree1) (U2 Int) (U3 Int) (U4 tptp.tree1)) (= (tptp.node_proj_11 (tptp.node1 U U1 U2 U3 U4)) U)))
(declare-fun tptp.node_proj_21 (tptp.tree1) tptp.tree1)
(assert (forall ((U tptp.color1) (U1 tptp.tree1) (U2 Int) (U3 Int) (U4 tptp.tree1)) (= (tptp.node_proj_21 (tptp.node1 U U1 U2 U3 U4)) U1)))
(declare-fun tptp.node_proj_31 (tptp.tree1) Int)
(assert (forall ((U tptp.color1) (U1 tptp.tree1) (U2 Int) (U3 Int) (U4 tptp.tree1)) (= (tptp.node_proj_31 (tptp.node1 U U1 U2 U3 U4)) U2)))
(declare-fun tptp.node_proj_41 (tptp.tree1) Int)
(assert (forall ((U tptp.color1) (U1 tptp.tree1) (U2 Int) (U3 Int) (U4 tptp.tree1)) (= (tptp.node_proj_41 (tptp.node1 U U1 U2 U3 U4)) U3)))
(declare-fun tptp.node_proj_51 (tptp.tree1) tptp.tree1)
(assert (forall ((U tptp.color1) (U1 tptp.tree1) (U2 Int) (U3 Int) (U4 tptp.tree1)) (= (tptp.node_proj_51 (tptp.node1 U U1 U2 U3 U4)) U4)))
(assert (forall ((U tptp.tree1)) (or (= U tptp.leaf1) (= U (tptp.node1 (tptp.node_proj_11 U) (tptp.node_proj_21 U) (tptp.node_proj_31 U) (tptp.node_proj_41 U) (tptp.node_proj_51 U))))))
(declare-fun tptp.memt1 (tptp.tree1 Int Int) Bool)
(assert (forall ((K Int) (V Int)) (and (not (tptp.memt1 tptp.leaf1 K V)) (forall ((X tptp.color1) (X1 tptp.tree1) (X2 Int) (X3 Int) (X4 tptp.tree1)) (= (tptp.memt1 (tptp.node1 X X1 X2 X3 X4) K V) (or (and (= K X2) (= V X3)) (tptp.memt1 X1 K V) (tptp.memt1 X4 K V)))))))
(assert (forall ((L tptp.tree1) (R tptp.tree1) (K Int) (Kqt Int) (V Int) (Vqt Int) (C tptp.color1) (Cqt tptp.color1)) (=> (tptp.memt1 (tptp.node1 C L K V R) Kqt Vqt) (tptp.memt1 (tptp.node1 Cqt L K V R) Kqt Vqt))))
(assert (forall ((X Int) (Y Int) (Z Int)) (=> (<= X Y) (=> (<= 0 Z) (<= (* X Z) (* Y Z))))))
(declare-fun tptp.lt_tree1 (Int tptp.tree1) Bool)
(assert (forall ((X Int) (T tptp.tree1)) (= (tptp.lt_tree1 X T) (forall ((K Int) (V Int)) (=> (tptp.memt1 T K V) (< K X))))))
(declare-fun tptp.gt_tree1 (Int tptp.tree1) Bool)
(assert (forall ((X Int) (T tptp.tree1)) (= (tptp.gt_tree1 X T) (forall ((K Int) (V Int)) (=> (tptp.memt1 T K V) (< X K))))))
(assert (forall ((X Int)) (tptp.lt_tree1 X tptp.leaf1)))
(assert (forall ((X Int)) (tptp.gt_tree1 X tptp.leaf1)))
(assert (forall ((X Int) (Y Int) (V Int) (L tptp.tree1) (R tptp.tree1) (C tptp.color1)) (=> (tptp.lt_tree1 X L) (=> (tptp.lt_tree1 X R) (=> (< Y X) (tptp.lt_tree1 X (tptp.node1 C L Y V R)))))))
(assert (forall ((X Int) (Y Int) (V Int) (L tptp.tree1) (R tptp.tree1) (C tptp.color1)) (=> (tptp.gt_tree1 X L) (=> (tptp.gt_tree1 X R) (=> (< X Y) (tptp.gt_tree1 X (tptp.node1 C L Y V R)))))))
(assert (forall ((X Int) (Y Int) (V Int) (L tptp.tree1) (R tptp.tree1) (C tptp.color1)) (=> (tptp.lt_tree1 X (tptp.node1 C L Y V R)) (< Y X))))
(assert (forall ((X Int) (Y Int) (V Int) (L tptp.tree1) (R tptp.tree1) (C tptp.color1)) (=> (tptp.gt_tree1 X (tptp.node1 C L Y V R)) (< X Y))))
(assert (forall ((X Int) (Y Int) (V Int) (L tptp.tree1) (R tptp.tree1) (C tptp.color1)) (=> (tptp.lt_tree1 X (tptp.node1 C L Y V R)) (tptp.lt_tree1 X L))))
(assert (forall ((X Int) (Y Int) (V Int) (L tptp.tree1) (R tptp.tree1) (C tptp.color1)) (=> (tptp.lt_tree1 X (tptp.node1 C L Y V R)) (tptp.lt_tree1 X R))))
(assert (forall ((X Int) (Y Int) (V Int) (L tptp.tree1) (R tptp.tree1) (C tptp.color1)) (=> (tptp.gt_tree1 X (tptp.node1 C L Y V R)) (tptp.gt_tree1 X L))))
(assert (forall ((X Int) (Y Int) (V Int) (L tptp.tree1) (R tptp.tree1) (C tptp.color1)) (=> (tptp.gt_tree1 X (tptp.node1 C L Y V R)) (tptp.gt_tree1 X R))))
(assert (forall ((X Int) (T tptp.tree1)) (=> (tptp.lt_tree1 X T) (forall ((V Int)) (not (tptp.memt1 T X V))))))
(assert (forall ((X Int) (Y Int)) (=> (< X Y) (forall ((T tptp.tree1)) (=> (tptp.lt_tree1 X T) (tptp.lt_tree1 Y T))))))
(assert (forall ((X Int) (T tptp.tree1)) (=> (tptp.gt_tree1 X T) (forall ((V Int)) (not (tptp.memt1 T X V))))))
(assert (forall ((X Int) (Y Int)) (=> (< Y X) (forall ((T tptp.tree1)) (=> (tptp.gt_tree1 X T) (tptp.gt_tree1 Y T))))))
(declare-fun tptp.bst1 (tptp.tree1) Bool)
(assert (and (tptp.bst1 tptp.leaf1) (forall ((X tptp.color1) (X1 tptp.tree1) (X2 Int) (X3 Int) (X4 tptp.tree1)) (= (tptp.bst1 (tptp.node1 X X1 X2 X3 X4)) (and (tptp.bst1 X1) (tptp.bst1 X4) (tptp.lt_tree1 X2 X1) (tptp.gt_tree1 X2 X4))))))
(assert (tptp.bst1 tptp.leaf1))
(assert (forall ((K Int) (V Int) (L tptp.tree1) (R tptp.tree1) (C tptp.color1)) (=> (tptp.bst1 (tptp.node1 C L K V R)) (tptp.bst1 L))))
(assert (forall ((K Int) (V Int) (L tptp.tree1) (R tptp.tree1) (C tptp.color1)) (=> (tptp.bst1 (tptp.node1 C L K V R)) (tptp.bst1 R))))
(assert (forall ((C tptp.color1) (Cqt tptp.color1) (K Int) (V Int) (L tptp.tree1) (R tptp.tree1)) (=> (tptp.bst1 (tptp.node1 C L K V R)) (tptp.bst1 (tptp.node1 Cqt L K V R)))))
(assert (forall ((Kx Int) (Ky Int) (Vx Int) (Vy Int) (A tptp.tree1) (B tptp.tree1) (C tptp.tree1) (C1 tptp.color1) (C2 tptp.color1) (C3 tptp.color1) (C4 tptp.color1)) (=> (tptp.bst1 (tptp.node1 C1 A Kx Vx (tptp.node1 C2 B Ky Vy C))) (tptp.bst1 (tptp.node1 C3 (tptp.node1 C4 A Kx Vx B) Ky Vy C)))))
(assert (forall ((Kx Int) (Ky Int) (Vx Int) (Vy Int) (A tptp.tree1) (B tptp.tree1) (C tptp.tree1) (C1 tptp.color1) (C2 tptp.color1) (C3 tptp.color1) (C4 tptp.color1)) (=> (tptp.bst1 (tptp.node1 C3 (tptp.node1 C4 A Kx Vx B) Ky Vy C)) (tptp.bst1 (tptp.node1 C1 A Kx Vx (tptp.node1 C2 B Ky Vy C))))))
(declare-fun tptp.is_not_red1 (tptp.tree1) Bool)
(assert (and (tptp.is_not_red1 tptp.leaf1) (forall ((X tptp.color1) (X1 tptp.tree1) (X2 Int) (X3 Int) (X4 tptp.tree1)) (let ((_let_1 (tptp.is_not_red1 (tptp.node1 X X1 X2 X3 X4)))) (and (=> (= X tptp.red1) (not _let_1)) (=> (= X tptp.black1) _let_1))))))
(declare-fun tptp.rbtree1 (Int tptp.tree1) Bool)
(assert (forall ((N Int)) (and (= (tptp.rbtree1 N tptp.leaf1) (= N 0)) (forall ((X tptp.color1) (X1 tptp.tree1) (X2 Int) (X3 Int) (X4 tptp.tree1)) (let ((_let_1 (- N 1))) (let ((_let_2 (tptp.rbtree1 N (tptp.node1 X X1 X2 X3 X4)))) (and (=> (= X tptp.red1) (= _let_2 (and (tptp.rbtree1 N X1) (tptp.rbtree1 N X4) (tptp.is_not_red1 X1) (tptp.is_not_red1 X4)))) (=> (= X tptp.black1) (= _let_2 (and (tptp.rbtree1 _let_1 X1) (tptp.rbtree1 _let_1 X4)))))))))))
(assert (tptp.rbtree1 0 tptp.leaf1))
(assert (forall ((K Int) (V Int)) (tptp.rbtree1 0 (tptp.node1 tptp.red1 tptp.leaf1 K V tptp.leaf1))))
(assert (forall ((X Int) (V Int) (L tptp.tree1) (R tptp.tree1) (C tptp.color1)) (=> (exists ((N Int)) (tptp.rbtree1 N (tptp.node1 C L X V R))) (exists ((N Int)) (tptp.rbtree1 N L)))))
(assert (forall ((X Int) (V Int) (L tptp.tree1) (R tptp.tree1) (C tptp.color1)) (=> (exists ((N Int)) (tptp.rbtree1 N (tptp.node1 C L X V R))) (exists ((N Int)) (tptp.rbtree1 N R)))))
(declare-fun tptp.almost_rbtree1 (Int tptp.tree1) Bool)
(assert (forall ((N Int)) (and (= (tptp.almost_rbtree1 N tptp.leaf1) (= N 0)) (forall ((X tptp.color1) (X1 tptp.tree1) (X2 Int) (X3 Int) (X4 tptp.tree1)) (let ((_let_1 (- N 1))) (let ((_let_2 (tptp.almost_rbtree1 N (tptp.node1 X X1 X2 X3 X4)))) (and (=> (= X tptp.red1) (= _let_2 (and (tptp.rbtree1 N X1) (tptp.rbtree1 N X4)))) (=> (= X tptp.black1) (= _let_2 (and (tptp.rbtree1 _let_1 X1) (tptp.rbtree1 _let_1 X4)))))))))))
(assert (forall ((N Int) (T tptp.tree1)) (=> (tptp.rbtree1 N T) (tptp.almost_rbtree1 N T))))
(assert (forall ((S tptp.tree1)) (=> (exists ((N Int)) (tptp.rbtree1 N S)) (exists ((N Int)) (tptp.almost_rbtree1 N S)))))
(assert (forall ((X Int) (V Int) (L tptp.tree1) (R tptp.tree1) (N Int)) (let ((_let_1 (tptp.node1 tptp.black1 L X V R))) (=> (tptp.almost_rbtree1 N _let_1) (tptp.rbtree1 N _let_1)))))
(assert (not (forall ((L tptp.tree1) (K Int) (V Int) (R tptp.tree1)) (=> (and (tptp.lt_tree1 K L) (tptp.gt_tree1 K R) (tptp.bst1 L) (tptp.bst1 R)) (forall ((X tptp.color1) (X1 tptp.tree1) (X2 Int) (X3 Int) (X4 tptp.tree1)) (=> (= L (tptp.node1 X X1 X2 X3 X4)) (and (=> (= X4 tptp.leaf1) (forall ((X5 tptp.color1) (X6 tptp.tree1) (X7 Int) (X8 Int) (X9 tptp.tree1)) (=> (= X1 (tptp.node1 X5 X6 X7 X8 X9)) (=> (= X5 tptp.red1) (=> (= X tptp.red1) (tptp.bst1 (tptp.node1 tptp.red1 (tptp.node1 tptp.black1 X6 X7 X8 X9) X2 X3 (tptp.node1 tptp.black1 X4 K V R)))))))) (forall ((X5 tptp.color1) (X6 tptp.tree1) (X7 Int) (X8 Int) (X9 tptp.tree1)) (=> (= X4 (tptp.node1 X5 X6 X7 X8 X9)) (and (=> (= X5 tptp.red1) (and (=> (= X1 tptp.leaf1) (=> (= X tptp.red1) (tptp.bst1 (tptp.node1 tptp.red1 (tptp.node1 tptp.black1 X1 X2 X3 X6) X7 X8 (tptp.node1 tptp.black1 X9 K V R))))) (forall ((X10 tptp.color1) (X11 tptp.tree1) (X12 Int) (X13 Int) (X14 tptp.tree1)) (let ((_let_1 (= X tptp.red1))) (=> (= X1 (tptp.node1 X10 X11 X12 X13 X14)) (and (=> (= X10 tptp.red1) (=> _let_1 (tptp.bst1 (tptp.node1 tptp.red1 (tptp.node1 tptp.black1 X11 X12 X13 X14) X2 X3 (tptp.node1 tptp.black1 X4 K V R))))) (=> (= X10 tptp.black1) (=> _let_1 (tptp.bst1 (tptp.node1 tptp.red1 (tptp.node1 tptp.black1 X1 X2 X3 X6) X7 X8 (tptp.node1 tptp.black1 X9 K V R))))))))))) (=> (= X5 tptp.black1) (forall ((X10 tptp.color1) (X11 tptp.tree1) (X12 Int) (X13 Int) (X14 tptp.tree1)) (=> (= X1 (tptp.node1 X10 X11 X12 X13 X14)) (=> (= X10 tptp.red1) (=> (= X tptp.red1) (tptp.bst1 (tptp.node1 tptp.red1 (tptp.node1 tptp.black1 X11 X12 X13 X14) X2 X3 (tptp.node1 tptp.black1 X4 K V R))))))))))))))))))
(check-sat)
(exit)
